SAT
-1 -100 -99 -98 -97 -96 -30 -95 -94 -93 -92 91 -76 64 72 -52 -29 -87 -31 20 -14 -54 25 -53 78 75 71 23 49 -51 82 86 -44 -35 -43 -5 -8 11 38 65 -22 73 81 58 -34 41 -84 33 -90 -48 -77 80 13 -56 37 -61 17 16 -3 83 -62 -69 -4 -47 -9 -7 70 -28 -67 -26 63 -2 79 -74 27 -68 57 -88 36 -60 50 -6 -42 18 -21 -66 12 39 15 46 -40 45 -10 19 -24 -59 85 -32 -55 -89 0
